c This is an instance of the exact track of PACE 2020 Challenge, see https://pacechallenge.org/2020/ 
c TYPE: biology 
c ORIGIN: networkrepository.com 
c DESCRIPTION: ENZYMES is a dataset of protein tertiary structures obtained from (Borgwardt et al., 2005)  consisting of 600 enzymes from the BRENDA enzyme database (Schomburg et al., 2004). Refernces: K. M. Borgwardt, C. S. Ong, S. Schoenauer, S. V. N. Vishwanathan, A. J. Smola, and H. P. Kriegel. Protein function prediction via graph kernels. Bioinformatics, 21(Suppl 1):i47–i56, Jun 2005. I. Schomburg, A. Chang, C. Ebeling, M. Gremse, C. Heldt, G. Huhn, and D. Schomburg. Brenda, the enzyme database: updates and major new developments. Nucleic Acids Research, 32D:431–433, 2008 
p tdp 40 73
1 2
1 4
1 5
2 3
3 5
3 9
4 6
4 7
6 8
6 9
6 10
7 8
7 9
7 10
8 11
8 12
10 11
10 12
11 13
12 29
13 14
13 15
14 15
14 16
15 16
15 17
16 18
16 17
16 19
17 18
17 20
18 20
18 21
18 19
19 20
19 32
19 33
20 21
21 22
21 23
22 25
22 23
23 25
23 35
23 37
24 25
24 26
24 27
24 28
26 27
26 28
27 28
29 30
29 31
30 31
30 32
31 32
31 33
32 33
32 34
32 35
33 34
33 35
34 35
36 37
36 38
36 39
36 40
37 38
37 39
38 39
38 40
39 40
